# Autogenerated file

variable  temperature  equal  298.15  # deg K
variable  freq    equal  4  # freq of output
variable  nstep      equal  100000  # number of steps

timestep  2

units    real
boundary  p p p
atom_style  full

# read data
read_data  BIPA+CO2.pdb.data

# set masses
mass 1 63.54630 #CU
mass 2 28.08550 #SI
mass 3 14.00670 #NI
mass 4 18.99840 #F1
mass 5 18.99840 #F2
mass 6 12.01000 #C1
mass 7 12.01000 #C2
mass 8 12.01000 #C3
mass 9 12.01000 #C4
mass 10 1.00790 #H1
mass 11 1.00790 #H2
mass 12 12.01000 #H2G
mass 13 16.00000 #H2E
mass 14 0.00001 #H2N

# set static polarizabilities
set type 1 static_polarizability 2.19630 #CU
set type 2 static_polarizability 2.13300 #SI
set type 3 static_polarizability 0.97157 #NI
set type 4 static_polarizability 0.44475 #F1
set type 5 static_polarizability 0.44475 #F2
set type 6 static_polarizability 1.28860 #C1
set type 7 static_polarizability 1.28860 #C2
set type 8 static_polarizability 1.28860 #C3
set type 9 static_polarizability 1.28860 #C4
set type 10 static_polarizability 0.41380 #H1
set type 11 static_polarizability 0.41380 #H2
set type 12 static_polarizability 1.22810 #H2G
set type 13 static_polarizability 0.73950 #H2E
set type 14 static_polarizability 0.00000 #H2N

# ewald and pair style
kspace_style  ewald/disp 1.0e-4
pair_style lj/cut/coul/long/polarization 2.5 8 precision 0.00000000001 max_iterations 100 damp_type exponential damp 2.1304 polar_gs_ranked yes debug no use_previous yes

# Lorentz-Berthelot mixed LJ parameters for each pair
pair_coeff 1 1 0.004999 3.114000 7.785000
pair_coeff 1 2 0.044824 3.470200 8.675500
pair_coeff 1 3 0.029158 3.182000 7.955000
pair_coeff 1 4 0.015808 3.055500 7.638750
pair_coeff 1 5 0.015808 3.055500 7.638750
pair_coeff 1 6 0.018711 3.332000 8.330000
pair_coeff 1 7 0.018711 3.332000 8.330000
pair_coeff 1 8 0.018711 3.332000 8.330000
pair_coeff 1 9 0.018711 3.332000 8.330000
pair_coeff 1 10 0.012251 2.767000 6.917500
pair_coeff 1 11 0.012251 2.767000 6.917500
pair_coeff 1 12 0.013959 3.073830 7.684575
pair_coeff 1 13 0.000000 1.557000 3.892500
pair_coeff 1 14 0.021485 3.054145 7.635362
pair_coeff 2 2 0.401925 3.826400 9.566000
pair_coeff 2 3 0.261454 3.538200 8.845500
pair_coeff 2 4 0.141747 3.411700 8.529250
pair_coeff 2 5 0.141747 3.411700 8.529250
pair_coeff 2 6 0.167778 3.688200 9.220500
pair_coeff 2 7 0.167778 3.688200 9.220500
pair_coeff 2 8 0.167778 3.688200 9.220500
pair_coeff 2 9 0.167778 3.688200 9.220500
pair_coeff 2 10 0.109848 3.123200 7.808000
pair_coeff 2 11 0.109848 3.123200 7.808000
pair_coeff 2 12 0.125165 3.430030 8.575075
pair_coeff 2 13 0.000000 1.913200 4.783000
pair_coeff 2 14 0.192648 3.410345 8.525863
pair_coeff 3 3 0.170077 3.250000 8.125000
pair_coeff 3 4 0.092207 3.123500 7.808750
pair_coeff 3 5 0.092207 3.123500 7.808750
pair_coeff 3 6 0.109141 3.400000 8.500000
pair_coeff 3 7 0.109141 3.400000 8.500000
pair_coeff 3 8 0.109141 3.400000 8.500000
pair_coeff 3 9 0.109141 3.400000 8.500000
pair_coeff 3 10 0.071457 2.835000 7.087500
pair_coeff 3 11 0.071457 2.835000 7.087500
pair_coeff 3 12 0.081420 3.141830 7.854575
pair_coeff 3 13 0.000000 1.625000 4.062500
pair_coeff 3 14 0.125319 3.122145 7.805363
pair_coeff 4 4 0.049990 2.997000 7.492500
pair_coeff 4 5 0.049990 2.997000 7.492500
pair_coeff 4 6 0.059171 3.273500 8.183750
pair_coeff 4 7 0.059171 3.273500 8.183750
pair_coeff 4 8 0.059171 3.273500 8.183750
pair_coeff 4 9 0.059171 3.273500 8.183750
pair_coeff 4 10 0.038740 2.708500 6.771250
pair_coeff 4 11 0.038740 2.708500 6.771250
pair_coeff 4 12 0.044142 3.015330 7.538325
pair_coeff 4 13 0.000000 1.498500 3.746250
pair_coeff 4 14 0.067941 2.995645 7.489113
pair_coeff 5 5 0.049990 2.997000 7.492500
pair_coeff 5 6 0.059171 3.273500 8.183750
pair_coeff 5 7 0.059171 3.273500 8.183750
pair_coeff 5 8 0.059171 3.273500 8.183750
pair_coeff 5 9 0.059171 3.273500 8.183750
pair_coeff 5 10 0.038740 2.708500 6.771250
pair_coeff 5 11 0.038740 2.708500 6.771250
pair_coeff 5 12 0.044142 3.015330 7.538325
pair_coeff 5 13 0.000000 1.498500 3.746250
pair_coeff 5 14 0.067941 2.995645 7.489113
pair_coeff 6 6 0.070037 3.550000 8.875000
pair_coeff 6 7 0.070037 3.550000 8.875000
pair_coeff 6 8 0.070037 3.550000 8.875000
pair_coeff 6 9 0.070037 3.550000 8.875000
pair_coeff 6 10 0.045855 2.985000 7.462500
pair_coeff 6 11 0.045855 2.985000 7.462500
pair_coeff 6 12 0.052248 3.291830 8.229575
pair_coeff 6 13 0.000000 1.775000 4.437500
pair_coeff 6 14 0.080419 3.272145 8.180362
pair_coeff 7 7 0.070037 3.550000 8.875000
pair_coeff 7 8 0.070037 3.550000 8.875000
pair_coeff 7 9 0.070037 3.550000 8.875000
pair_coeff 7 10 0.045855 2.985000 7.462500
pair_coeff 7 11 0.045855 2.985000 7.462500
pair_coeff 7 12 0.052248 3.291830 8.229575
pair_coeff 7 13 0.000000 1.775000 4.437500
pair_coeff 7 14 0.080419 3.272145 8.180362
pair_coeff 8 8 0.070037 3.550000 8.875000
pair_coeff 8 9 0.070037 3.550000 8.875000
pair_coeff 8 10 0.045855 2.985000 7.462500
pair_coeff 8 11 0.045855 2.985000 7.462500
pair_coeff 8 12 0.052248 3.291830 8.229575
pair_coeff 8 13 0.000000 1.775000 4.437500
pair_coeff 8 14 0.080419 3.272145 8.180362
pair_coeff 9 9 0.070037 3.550000 8.875000
pair_coeff 9 10 0.045855 2.985000 7.462500
pair_coeff 9 11 0.045855 2.985000 7.462500
pair_coeff 9 12 0.052248 3.291830 8.229575
pair_coeff 9 13 0.000000 1.775000 4.437500
pair_coeff 9 14 0.080419 3.272145 8.180362
pair_coeff 10 10 0.030022 2.420000 6.050000
pair_coeff 10 11 0.030022 2.420000 6.050000
pair_coeff 10 12 0.034208 2.726830 6.817075
pair_coeff 10 13 0.000000 1.210000 3.025000
pair_coeff 10 14 0.052652 2.707145 6.767862
pair_coeff 11 11 0.030022 2.420000 6.050000
pair_coeff 11 12 0.034208 2.726830 6.817075
pair_coeff 11 13 0.000000 1.210000 3.025000
pair_coeff 11 14 0.052652 2.707145 6.767862
pair_coeff 12 12 0.038978 3.033660 7.584150
pair_coeff 12 13 0.000000 1.516830 3.792075
pair_coeff 12 14 0.059993 3.013975 7.534937
pair_coeff 13 13 0.000000 0.000000 0.000000
pair_coeff 13 14 0.000000 1.497145 3.742862
pair_coeff 14 14 0.092339 2.994290 7.485725

# ensure self molecule interactions excluded
special_bonds  lj/coul 0.0 0.0 0.0
neigh_modify exclude molecule all

group moving molecule > 1

# output observables
compute movingtemp moving temp
thermo_style  custom step etotal ke pe evdwl ecoul elong epol temp press c_movingtemp
thermo    ${freq}

velocity  all create ${temperature} 12345 rot yes mom yes dist gaussian
fix    rigid_nvt moving rigid/nvt molecule temp ${temperature} ${temperature} 500 tparam 50 1 3
run    50000
unfix rigid_nvt

# can be viewed with vmd -lammpstrj ./BIPA+CO2.pdb.dump
dump    Dump moving custom ${freq} BIPA+CO2.pdb.dump x y z type mol
dump_modify Dump sort id

fix    rigid_nve moving rigid/nve molecule
run    ${nstep}
