# Autogenerated file

variable  temperature  equal  298.15  # deg K
variable  freq    equal  1  # freq of output
variable  nstep      equal  2  # number of steps

timestep  1

units    real
boundary  p p p
atom_style  full

# read data
read_data  cutdpat.data

# set masses
mass 1 63.54630 #CU1
mass 2 63.54630 #CU2
mass 3 12.01100 #CPO
mass 4 12.01100 #CFO
mass 5 12.01100 #CPC
mass 6 12.01100 #CFC
mass 7 12.01100 #CH
mass 8 12.01100 #CPH
mass 9 12.01100 #CFH
mass 10 12.01100 #CN2
mass 11 12.01100 #CN1
mass 12 14.00670 #NH
mass 13 14.00670 #NC
mass 14 15.99900 #OP1
mass 15 15.99900 #OF1
mass 16 15.99900 #OP2
mass 17 15.99900 #OF2
mass 18 1.00790 #HC
mass 19 1.00790 #HPC
mass 20 1.00790 #HFC
mass 21 1.00790 #HN
mass 22 12.01000 #H2G
mass 23 16.00000 #H2E
mass 24 0.00001 #H2N

# set static polarizabilities
set type 1 static_polarizability 2.19630 #CU1
set type 2 static_polarizability 2.19630 #CU2
set type 3 static_polarizability 1.28860 #CPO
set type 4 static_polarizability 1.28860 #CFO
set type 5 static_polarizability 1.28860 #CPC
set type 6 static_polarizability 1.28860 #CFC
set type 7 static_polarizability 1.28860 #CH
set type 8 static_polarizability 1.28860 #CPH
set type 9 static_polarizability 1.28860 #CFH
set type 10 static_polarizability 1.28860 #CN2
set type 11 static_polarizability 1.28860 #CN1
set type 12 static_polarizability 0.97157 #NH
set type 13 static_polarizability 0.97157 #NC
set type 14 static_polarizability 0.85200 #OP1
set type 15 static_polarizability 0.85200 #OF1
set type 16 static_polarizability 0.85200 #OP2
set type 17 static_polarizability 0.85200 #OF2
set type 18 static_polarizability 0.41380 #HC
set type 19 static_polarizability 0.41380 #HPC
set type 20 static_polarizability 0.41380 #HFC
set type 21 static_polarizability 0.41380 #HN
set type 22 static_polarizability 1.22810 #H2G
set type 23 static_polarizability 0.73950 #H2E
set type 24 static_polarizability 0.00000 #H2N

# ewald and pair style
kspace_style  ewald 1.0e-6
pair_style lj/cut/coul/long/polarization 2.5 6 precision 0.000000000000001 max_iterations 100 damp_type exponential damp 2.1304 polar_gs_ranked yes debug yes use_previous yes

# Lorentz-Berthelot mixed LJ parameters for each pair
pair_coeff 1 1 0.004999 3.114000 7.785000
pair_coeff 1 2 0.004999 3.114000 7.785000
pair_coeff 1 3 0.022909 3.272500 8.181250
pair_coeff 1 4 0.022909 3.272500 8.181250
pair_coeff 1 5 0.022909 3.272500 8.181250
pair_coeff 1 6 0.022909 3.272500 8.181250
pair_coeff 1 7 0.022909 3.272500 8.181250
pair_coeff 1 8 0.022909 3.272500 8.181250
pair_coeff 1 9 0.022909 3.272500 8.181250
pair_coeff 1 10 0.022909 3.272500 8.181250
pair_coeff 1 11 0.022909 3.272500 8.181250
pair_coeff 1 12 0.018570 3.187500 7.968750
pair_coeff 1 13 0.018570 3.187500 7.968750
pair_coeff 1 14 0.017316 3.116000 7.790000
pair_coeff 1 15 0.017316 3.116000 7.790000
pair_coeff 1 16 0.017316 3.116000 7.790000
pair_coeff 1 17 0.017316 3.116000 7.790000
pair_coeff 1 18 0.014829 2.842500 7.106250
pair_coeff 1 19 0.014829 2.842500 7.106250
pair_coeff 1 20 0.014829 2.842500 7.106250
pair_coeff 1 21 0.014829 2.842500 7.106250
pair_coeff 1 22 0.009200 3.084745 7.711862
pair_coeff 1 23 0.000000 1.557000 3.892500
pair_coeff 1 24 0.027613 3.029365 7.573412
pair_coeff 2 2 0.004999 3.114000 7.785000
pair_coeff 2 3 0.022909 3.272500 8.181250
pair_coeff 2 4 0.022909 3.272500 8.181250
pair_coeff 2 5 0.022909 3.272500 8.181250
pair_coeff 2 6 0.022909 3.272500 8.181250
pair_coeff 2 7 0.022909 3.272500 8.181250
pair_coeff 2 8 0.022909 3.272500 8.181250
pair_coeff 2 9 0.022909 3.272500 8.181250
pair_coeff 2 10 0.022909 3.272500 8.181250
pair_coeff 2 11 0.022909 3.272500 8.181250
pair_coeff 2 12 0.018570 3.187500 7.968750
pair_coeff 2 13 0.018570 3.187500 7.968750
pair_coeff 2 14 0.017316 3.116000 7.790000
pair_coeff 2 15 0.017316 3.116000 7.790000
pair_coeff 2 16 0.017316 3.116000 7.790000
pair_coeff 2 17 0.017316 3.116000 7.790000
pair_coeff 2 18 0.014829 2.842500 7.106250
pair_coeff 2 19 0.014829 2.842500 7.106250
pair_coeff 2 20 0.014829 2.842500 7.106250
pair_coeff 2 21 0.014829 2.842500 7.106250
pair_coeff 2 22 0.009200 3.084745 7.711862
pair_coeff 2 23 0.000000 1.557000 3.892500
pair_coeff 2 24 0.027613 3.029365 7.573412
pair_coeff 3 3 0.104987 3.431000 8.577500
pair_coeff 3 4 0.104987 3.431000 8.577500
pair_coeff 3 5 0.104987 3.431000 8.577500
pair_coeff 3 6 0.104987 3.431000 8.577500
pair_coeff 3 7 0.104987 3.431000 8.577500
pair_coeff 3 8 0.104987 3.431000 8.577500
pair_coeff 3 9 0.104987 3.431000 8.577500
pair_coeff 3 10 0.104987 3.431000 8.577500
pair_coeff 3 11 0.104987 3.431000 8.577500
pair_coeff 3 12 0.085102 3.346000 8.365000
pair_coeff 3 13 0.085102 3.346000 8.365000
pair_coeff 3 14 0.079357 3.274500 8.186250
pair_coeff 3 15 0.079357 3.274500 8.186250
pair_coeff 3 16 0.079357 3.274500 8.186250
pair_coeff 3 17 0.079357 3.274500 8.186250
pair_coeff 3 18 0.067958 3.001000 7.502500
pair_coeff 3 19 0.067958 3.001000 7.502500
pair_coeff 3 20 0.067958 3.001000 7.502500
pair_coeff 3 21 0.067958 3.001000 7.502500
pair_coeff 3 22 0.042163 3.243245 8.108113
pair_coeff 3 23 0.000000 1.715500 4.288750
pair_coeff 3 24 0.126543 3.187865 7.969663
pair_coeff 4 4 0.104987 3.431000 8.577500
pair_coeff 4 5 0.104987 3.431000 8.577500
pair_coeff 4 6 0.104987 3.431000 8.577500
pair_coeff 4 7 0.104987 3.431000 8.577500
pair_coeff 4 8 0.104987 3.431000 8.577500
pair_coeff 4 9 0.104987 3.431000 8.577500
pair_coeff 4 10 0.104987 3.431000 8.577500
pair_coeff 4 11 0.104987 3.431000 8.577500
pair_coeff 4 12 0.085102 3.346000 8.365000
pair_coeff 4 13 0.085102 3.346000 8.365000
pair_coeff 4 14 0.079357 3.274500 8.186250
pair_coeff 4 15 0.079357 3.274500 8.186250
pair_coeff 4 16 0.079357 3.274500 8.186250
pair_coeff 4 17 0.079357 3.274500 8.186250
pair_coeff 4 18 0.067958 3.001000 7.502500
pair_coeff 4 19 0.067958 3.001000 7.502500
pair_coeff 4 20 0.067958 3.001000 7.502500
pair_coeff 4 21 0.067958 3.001000 7.502500
pair_coeff 4 22 0.042163 3.243245 8.108113
pair_coeff 4 23 0.000000 1.715500 4.288750
pair_coeff 4 24 0.126543 3.187865 7.969663
pair_coeff 5 5 0.104987 3.431000 8.577500
pair_coeff 5 6 0.104987 3.431000 8.577500
pair_coeff 5 7 0.104987 3.431000 8.577500
pair_coeff 5 8 0.104987 3.431000 8.577500
pair_coeff 5 9 0.104987 3.431000 8.577500
pair_coeff 5 10 0.104987 3.431000 8.577500
pair_coeff 5 11 0.104987 3.431000 8.577500
pair_coeff 5 12 0.085102 3.346000 8.365000
pair_coeff 5 13 0.085102 3.346000 8.365000
pair_coeff 5 14 0.079357 3.274500 8.186250
pair_coeff 5 15 0.079357 3.274500 8.186250
pair_coeff 5 16 0.079357 3.274500 8.186250
pair_coeff 5 17 0.079357 3.274500 8.186250
pair_coeff 5 18 0.067958 3.001000 7.502500
pair_coeff 5 19 0.067958 3.001000 7.502500
pair_coeff 5 20 0.067958 3.001000 7.502500
pair_coeff 5 21 0.067958 3.001000 7.502500
pair_coeff 5 22 0.042163 3.243245 8.108113
pair_coeff 5 23 0.000000 1.715500 4.288750
pair_coeff 5 24 0.126543 3.187865 7.969663
pair_coeff 6 6 0.104987 3.431000 8.577500
pair_coeff 6 7 0.104987 3.431000 8.577500
pair_coeff 6 8 0.104987 3.431000 8.577500
pair_coeff 6 9 0.104987 3.431000 8.577500
pair_coeff 6 10 0.104987 3.431000 8.577500
pair_coeff 6 11 0.104987 3.431000 8.577500
pair_coeff 6 12 0.085102 3.346000 8.365000
pair_coeff 6 13 0.085102 3.346000 8.365000
pair_coeff 6 14 0.079357 3.274500 8.186250
pair_coeff 6 15 0.079357 3.274500 8.186250
pair_coeff 6 16 0.079357 3.274500 8.186250
pair_coeff 6 17 0.079357 3.274500 8.186250
pair_coeff 6 18 0.067958 3.001000 7.502500
pair_coeff 6 19 0.067958 3.001000 7.502500
pair_coeff 6 20 0.067958 3.001000 7.502500
pair_coeff 6 21 0.067958 3.001000 7.502500
pair_coeff 6 22 0.042163 3.243245 8.108113
pair_coeff 6 23 0.000000 1.715500 4.288750
pair_coeff 6 24 0.126543 3.187865 7.969663
pair_coeff 7 7 0.104987 3.431000 8.577500
pair_coeff 7 8 0.104987 3.431000 8.577500
pair_coeff 7 9 0.104987 3.431000 8.577500
pair_coeff 7 10 0.104987 3.431000 8.577500
pair_coeff 7 11 0.104987 3.431000 8.577500
pair_coeff 7 12 0.085102 3.346000 8.365000
pair_coeff 7 13 0.085102 3.346000 8.365000
pair_coeff 7 14 0.079357 3.274500 8.186250
pair_coeff 7 15 0.079357 3.274500 8.186250
pair_coeff 7 16 0.079357 3.274500 8.186250
pair_coeff 7 17 0.079357 3.274500 8.186250
pair_coeff 7 18 0.067958 3.001000 7.502500
pair_coeff 7 19 0.067958 3.001000 7.502500
pair_coeff 7 20 0.067958 3.001000 7.502500
pair_coeff 7 21 0.067958 3.001000 7.502500
pair_coeff 7 22 0.042163 3.243245 8.108113
pair_coeff 7 23 0.000000 1.715500 4.288750
pair_coeff 7 24 0.126543 3.187865 7.969663
pair_coeff 8 8 0.104987 3.431000 8.577500
pair_coeff 8 9 0.104987 3.431000 8.577500
pair_coeff 8 10 0.104987 3.431000 8.577500
pair_coeff 8 11 0.104987 3.431000 8.577500
pair_coeff 8 12 0.085102 3.346000 8.365000
pair_coeff 8 13 0.085102 3.346000 8.365000
pair_coeff 8 14 0.079357 3.274500 8.186250
pair_coeff 8 15 0.079357 3.274500 8.186250
pair_coeff 8 16 0.079357 3.274500 8.186250
pair_coeff 8 17 0.079357 3.274500 8.186250
pair_coeff 8 18 0.067958 3.001000 7.502500
pair_coeff 8 19 0.067958 3.001000 7.502500
pair_coeff 8 20 0.067958 3.001000 7.502500
pair_coeff 8 21 0.067958 3.001000 7.502500
pair_coeff 8 22 0.042163 3.243245 8.108113
pair_coeff 8 23 0.000000 1.715500 4.288750
pair_coeff 8 24 0.126543 3.187865 7.969663
pair_coeff 9 9 0.104987 3.431000 8.577500
pair_coeff 9 10 0.104987 3.431000 8.577500
pair_coeff 9 11 0.104987 3.431000 8.577500
pair_coeff 9 12 0.085102 3.346000 8.365000
pair_coeff 9 13 0.085102 3.346000 8.365000
pair_coeff 9 14 0.079357 3.274500 8.186250
pair_coeff 9 15 0.079357 3.274500 8.186250
pair_coeff 9 16 0.079357 3.274500 8.186250
pair_coeff 9 17 0.079357 3.274500 8.186250
pair_coeff 9 18 0.067958 3.001000 7.502500
pair_coeff 9 19 0.067958 3.001000 7.502500
pair_coeff 9 20 0.067958 3.001000 7.502500
pair_coeff 9 21 0.067958 3.001000 7.502500
pair_coeff 9 22 0.042163 3.243245 8.108113
pair_coeff 9 23 0.000000 1.715500 4.288750
pair_coeff 9 24 0.126543 3.187865 7.969663
pair_coeff 10 10 0.104987 3.431000 8.577500
pair_coeff 10 11 0.104987 3.431000 8.577500
pair_coeff 10 12 0.085102 3.346000 8.365000
pair_coeff 10 13 0.085102 3.346000 8.365000
pair_coeff 10 14 0.079357 3.274500 8.186250
pair_coeff 10 15 0.079357 3.274500 8.186250
pair_coeff 10 16 0.079357 3.274500 8.186250
pair_coeff 10 17 0.079357 3.274500 8.186250
pair_coeff 10 18 0.067958 3.001000 7.502500
pair_coeff 10 19 0.067958 3.001000 7.502500
pair_coeff 10 20 0.067958 3.001000 7.502500
pair_coeff 10 21 0.067958 3.001000 7.502500
pair_coeff 10 22 0.042163 3.243245 8.108113
pair_coeff 10 23 0.000000 1.715500 4.288750
pair_coeff 10 24 0.126543 3.187865 7.969663
pair_coeff 11 11 0.104987 3.431000 8.577500
pair_coeff 11 12 0.085102 3.346000 8.365000
pair_coeff 11 13 0.085102 3.346000 8.365000
pair_coeff 11 14 0.079357 3.274500 8.186250
pair_coeff 11 15 0.079357 3.274500 8.186250
pair_coeff 11 16 0.079357 3.274500 8.186250
pair_coeff 11 17 0.079357 3.274500 8.186250
pair_coeff 11 18 0.067958 3.001000 7.502500
pair_coeff 11 19 0.067958 3.001000 7.502500
pair_coeff 11 20 0.067958 3.001000 7.502500
pair_coeff 11 21 0.067958 3.001000 7.502500
pair_coeff 11 22 0.042163 3.243245 8.108113
pair_coeff 11 23 0.000000 1.715500 4.288750
pair_coeff 11 24 0.126543 3.187865 7.969663
pair_coeff 12 12 0.068984 3.261000 8.152500
pair_coeff 12 13 0.068984 3.261000 8.152500
pair_coeff 12 14 0.064327 3.189500 7.973750
pair_coeff 12 15 0.064327 3.189500 7.973750
pair_coeff 12 16 0.064327 3.189500 7.973750
pair_coeff 12 17 0.064327 3.189500 7.973750
pair_coeff 12 18 0.055087 2.916000 7.290000
pair_coeff 12 19 0.055087 2.916000 7.290000
pair_coeff 12 20 0.055087 2.916000 7.290000
pair_coeff 12 21 0.055087 2.916000 7.290000
pair_coeff 12 22 0.034178 3.158245 7.895613
pair_coeff 12 23 0.000000 1.630500 4.076250
pair_coeff 12 24 0.102576 3.102865 7.757162
pair_coeff 13 13 0.068984 3.261000 8.152500
pair_coeff 13 14 0.064327 3.189500 7.973750
pair_coeff 13 15 0.064327 3.189500 7.973750
pair_coeff 13 16 0.064327 3.189500 7.973750
pair_coeff 13 17 0.064327 3.189500 7.973750
pair_coeff 13 18 0.055087 2.916000 7.290000
pair_coeff 13 19 0.055087 2.916000 7.290000
pair_coeff 13 20 0.055087 2.916000 7.290000
pair_coeff 13 21 0.055087 2.916000 7.290000
pair_coeff 13 22 0.034178 3.158245 7.895613
pair_coeff 13 23 0.000000 1.630500 4.076250
pair_coeff 13 24 0.102576 3.102865 7.757162
pair_coeff 14 14 0.059984 3.118000 7.795000
pair_coeff 14 15 0.059984 3.118000 7.795000
pair_coeff 14 16 0.059984 3.118000 7.795000
pair_coeff 14 17 0.059984 3.118000 7.795000
pair_coeff 14 18 0.051368 2.844500 7.111250
pair_coeff 14 19 0.051368 2.844500 7.111250
pair_coeff 14 20 0.051368 2.844500 7.111250
pair_coeff 14 21 0.051368 2.844500 7.111250
pair_coeff 14 22 0.031870 3.086745 7.716862
pair_coeff 14 23 0.000000 1.559000 3.897500
pair_coeff 14 24 0.095651 3.031365 7.578412
pair_coeff 15 15 0.059984 3.118000 7.795000
pair_coeff 15 16 0.059984 3.118000 7.795000
pair_coeff 15 17 0.059984 3.118000 7.795000
pair_coeff 15 18 0.051368 2.844500 7.111250
pair_coeff 15 19 0.051368 2.844500 7.111250
pair_coeff 15 20 0.051368 2.844500 7.111250
pair_coeff 15 21 0.051368 2.844500 7.111250
pair_coeff 15 22 0.031870 3.086745 7.716862
pair_coeff 15 23 0.000000 1.559000 3.897500
pair_coeff 15 24 0.095651 3.031365 7.578412
pair_coeff 16 16 0.059984 3.118000 7.795000
pair_coeff 16 17 0.059984 3.118000 7.795000
pair_coeff 16 18 0.051368 2.844500 7.111250
pair_coeff 16 19 0.051368 2.844500 7.111250
pair_coeff 16 20 0.051368 2.844500 7.111250
pair_coeff 16 21 0.051368 2.844500 7.111250
pair_coeff 16 22 0.031870 3.086745 7.716862
pair_coeff 16 23 0.000000 1.559000 3.897500
pair_coeff 16 24 0.095651 3.031365 7.578412
pair_coeff 17 17 0.059984 3.118000 7.795000
pair_coeff 17 18 0.051368 2.844500 7.111250
pair_coeff 17 19 0.051368 2.844500 7.111250
pair_coeff 17 20 0.051368 2.844500 7.111250
pair_coeff 17 21 0.051368 2.844500 7.111250
pair_coeff 17 22 0.031870 3.086745 7.716862
pair_coeff 17 23 0.000000 1.559000 3.897500
pair_coeff 17 24 0.095651 3.031365 7.578412
pair_coeff 18 18 0.043989 2.571000 6.427500
pair_coeff 18 19 0.043989 2.571000 6.427500
pair_coeff 18 20 0.043989 2.571000 6.427500
pair_coeff 18 21 0.043989 2.571000 6.427500
pair_coeff 18 22 0.027292 2.813245 7.033112
pair_coeff 18 23 0.000000 1.285500 3.213750
pair_coeff 18 24 0.081911 2.757865 6.894662
pair_coeff 19 19 0.043989 2.571000 6.427500
pair_coeff 19 20 0.043989 2.571000 6.427500
pair_coeff 19 21 0.043989 2.571000 6.427500
pair_coeff 19 22 0.027292 2.813245 7.033112
pair_coeff 19 23 0.000000 1.285500 3.213750
pair_coeff 19 24 0.081911 2.757865 6.894662
pair_coeff 20 20 0.043989 2.571000 6.427500
pair_coeff 20 21 0.043989 2.571000 6.427500
pair_coeff 20 22 0.027292 2.813245 7.033112
pair_coeff 20 23 0.000000 1.285500 3.213750
pair_coeff 20 24 0.081911 2.757865 6.894662
pair_coeff 21 21 0.043989 2.571000 6.427500
pair_coeff 21 22 0.027292 2.813245 7.033112
pair_coeff 21 23 0.000000 1.285500 3.213750
pair_coeff 21 24 0.081911 2.757865 6.894662
pair_coeff 22 22 0.016933 3.055490 7.638725
pair_coeff 22 23 0.000000 1.527745 3.819362
pair_coeff 22 24 0.050820 3.000110 7.500275
pair_coeff 23 23 0.000000 0.000000 0.000000
pair_coeff 23 24 0.000000 1.472365 3.680912
pair_coeff 24 24 0.152525 2.944730 7.361825

# ensure self molecule interactions excluded
special_bonds  lj/coul 0.0 0.0 0.0
neigh_modify exclude molecule all

# output observables
thermo_style  custom step etotal ke pe evdwl ecoul elong epol temp press
thermo    ${freq}

# can be viewed with vmd -lammpstrj ./cutdpat.dump
dump    Dump all custom ${freq} cutdpat.dump x y z type mol

group hydrogen type 22 23 24
velocity  all create ${temperature} 12345 rot yes mom yes dist gaussian
fix    rigid_nve hydrogen rigid/nve molecule
run    ${nstep}
